p edge 60 534
e 1 3
e 1 4
e 1 6
e 1 15
e 1 16
e 1 21
e 1 23
e 1 24
e 1 25
e 1 27
e 1 33
e 1 35
e 1 36
e 1 47
e 1 49
e 1 51
e 1 54
e 1 59
e 2 4
e 2 6
e 2 8
e 2 9
e 2 11
e 2 14
e 2 16
e 2 18
e 2 19
e 2 26
e 2 29
e 2 31
e 2 39
e 2 40
e 2 41
e 2 45
e 2 47
e 2 49
e 2 51
e 2 57
e 2 60
e 3 5
e 3 10
e 3 13
e 3 14
e 3 15
e 3 16
e 3 19
e 3 20
e 3 23
e 3 25
e 3 26
e 3 29
e 3 31
e 3 36
e 3 39
e 3 40
e 3 42
e 3 45
e 3 46
e 3 47
e 3 48
e 3 53
e 3 54
e 4 5
e 4 12
e 4 17
e 4 21
e 4 22
e 4 23
e 4 25
e 4 26
e 4 30
e 4 34
e 4 35
e 4 39
e 4 43
e 4 50
e 4 52
e 4 56
e 4 58
e 5 9
e 5 11
e 5 13
e 5 16
e 5 23
e 5 25
e 5 33
e 5 35
e 5 36
e 5 37
e 5 38
e 5 47
e 5 51
e 5 53
e 6 7
e 6 8
e 6 13
e 6 14
e 6 23
e 6 48
e 7 8
e 7 9
e 7 10
e 7 15
e 7 17
e 7 20
e 7 21
e 7 24
e 7 25
e 7 27
e 7 28
e 7 32
e 7 36
e 7 40
e 7 42
e 7 48
e 7 55
e 7 56
e 8 9
e 8 22
e 8 23
e 8 25
e 8 31
e 8 35
e 8 38
e 8 39
e 8 42
e 8 50
e 8 53
e 8 55
e 8 57
e 8 58
e 9 11
e 9 12
e 9 13
e 9 19
e 9 22
e 9 24
e 9 33
e 9 39
e 9 40
e 9 42
e 9 45
e 9 49
e 10 16
e 10 18
e 10 24
e 10 26
e 10 28
e 10 39
e 10 40
e 10 42
e 10 43
e 10 50
e 10 51
e 10 53
e 10 56
e 10 58
e 11 12
e 11 13
e 11 15
e 11 21
e 11 23
e 11 29
e 11 33
e 11 34
e 11 35
e 11 43
e 11 48
e 11 51
e 11 53
e 11 54
e 11 58
e 12 13
e 12 14
e 12 15
e 12 31
e 12 34
e 12 36
e 12 40
e 12 45
e 12 47
e 12 49
e 12 56
e 13 24
e 13 25
e 13 27
e 13 32
e 13 36
e 13 37
e 13 40
e 13 44
e 13 46
e 13 49
e 13 50
e 13 53
e 13 56
e 13 57
e 13 58
e 14 15
e 14 18
e 14 21
e 14 27
e 14 29
e 14 37
e 14 40
e 14 42
e 14 49
e 14 52
e 14 53
e 14 56
e 14 60
e 15 28
e 15 41
e 15 42
e 15 43
e 15 44
e 15 45
e 15 47
e 15 54
e 15 55
e 15 57
e 15 58
e 15 60
e 16 17
e 16 18
e 16 19
e 16 21
e 16 24
e 16 29
e 16 30
e 16 33
e 16 35
e 16 40
e 16 41
e 16 42
e 16 45
e 16 47
e 16 50
e 16 59
e 17 23
e 17 26
e 17 30
e 17 33
e 17 34
e 17 42
e 17 47
e 17 50
e 17 53
e 17 57
e 17 59
e 18 24
e 18 25
e 18 28
e 18 31
e 18 33
e 18 41
e 18 44
e 18 46
e 18 48
e 18 49
e 18 51
e 18 52
e 18 57
e 18 59
e 18 60
e 19 22
e 19 23
e 19 28
e 19 29
e 19 34
e 19 37
e 19 38
e 19 48
e 19 51
e 19 52
e 19 53
e 19 54
e 20 27
e 20 40
e 20 41
e 20 44
e 20 45
e 20 48
e 20 50
e 20 51
e 20 56
e 21 25
e 21 29
e 21 32
e 21 49
e 21 50
e 21 54
e 21 55
e 21 57
e 22 25
e 22 26
e 22 29
e 22 34
e 22 35
e 22 38
e 22 40
e 22 45
e 22 57
e 22 59
e 23 27
e 23 30
e 23 33
e 23 34
e 23 37
e 23 40
e 23 41
e 23 42
e 23 44
e 23 51
e 23 53
e 23 54
e 23 56
e 23 58
e 24 27
e 24 28
e 24 29
e 24 30
e 24 33
e 24 35
e 24 37
e 24 51
e 24 53
e 24 56
e 24 58
e 25 32
e 25 35
e 25 41
e 25 43
e 25 52
e 25 53
e 25 54
e 25 56
e 25 59
e 25 60
e 26 28
e 26 34
e 26 36
e 26 38
e 26 39
e 26 44
e 26 48
e 26 53
e 26 56
e 26 57
e 26 60
e 27 32
e 27 33
e 27 45
e 27 46
e 27 48
e 27 51
e 27 55
e 27 56
e 28 30
e 28 32
e 28 34
e 28 41
e 28 42
e 28 43
e 28 44
e 28 47
e 28 50
e 28 52
e 28 55
e 28 58
e 28 59
e 29 31
e 29 32
e 29 33
e 29 37
e 29 39
e 29 43
e 29 44
e 29 51
e 29 53
e 30 31
e 30 33
e 30 36
e 30 39
e 30 48
e 30 51
e 30 58
e 31 37
e 31 46
e 31 49
e 31 55
e 31 56
e 31 58
e 31 59
e 32 36
e 32 44
e 32 45
e 32 47
e 32 51
e 32 59
e 33 37
e 33 42
e 33 43
e 33 46
e 33 50
e 33 52
e 33 54
e 33 58
e 33 60
e 34 36
e 34 39
e 34 40
e 34 43
e 34 44
e 34 49
e 34 52
e 35 36
e 35 39
e 35 45
e 35 46
e 35 50
e 35 53
e 35 54
e 35 55
e 35 56
e 35 60
e 36 37
e 36 43
e 36 45
e 36 48
e 36 49
e 36 53
e 36 57
e 36 60
e 37 39
e 37 42
e 37 43
e 37 45
e 37 47
e 37 52
e 37 56
e 37 58
e 38 40
e 38 46
e 38 52
e 38 54
e 38 56
e 38 60
e 39 44
e 39 45
e 39 48
e 39 52
e 39 55
e 39 57
e 39 60
e 40 48
e 40 49
e 40 52
e 40 54
e 40 55
e 41 42
e 41 47
e 41 51
e 41 54
e 41 57
e 41 58
e 41 60
e 42 48
e 42 50
e 42 53
e 42 59
e 43 44
e 43 47
e 43 54
e 43 56
e 43 58
e 43 59
e 44 45
e 44 52
e 44 53
e 44 58
e 45 48
e 45 49
e 45 50
e 45 51
e 45 52
e 45 53
e 45 54
e 45 55
e 45 57
e 45 59
e 45 60
e 46 50
e 46 51
e 46 52
e 46 54
e 46 56
e 46 59
e 47 49
e 47 56
e 47 59
e 47 60
e 48 50
e 48 55
e 48 56
e 48 57
e 49 52
e 49 56
e 49 57
e 50 54
e 50 58
e 50 59
e 51 52
e 51 55
e 51 58
e 52 53
e 52 54
e 52 55
e 52 57
e 52 58
e 52 59
e 53 58
e 53 59
e 54 55
e 54 57
e 54 59
e 55 57
e 55 59
e 56 59
e 56 60
e 57 58
e 58 59
e 58 60
e 59 60